; benchmark generated from python API
(set-info :status unknown)
(declare-fun x_epoch () Int)
(declare-fun x_plus_epoch () Int)
(declare-fun x_plus_month () Int)
(declare-fun x_plus_year () Int)
(declare-fun x_plus_day () Int)
(declare-fun x_plus_1_epoch () Int)
(assert
 (>= x_epoch (- 36584)))
(assert
 (<= x_epoch 36829))
(assert
 (>= x_epoch 8341))
(assert
 (<= x_epoch 8705))
(assert
 (>= x_plus_epoch (- 36584)))
(assert
 (<= x_plus_epoch 36829))
(assert
 (let (($x2617 (= x_plus_month 11)))
 (let (($x1150 (= x_plus_month 9)))
 (let (($x2790 (= x_plus_month 6)))
 (let (($x434 (= x_plus_month 4)))
 (let ((?x1387 (ite (or $x434 $x2790 $x1150 $x2617) 30 31)))
 (let (($x722 (= (mod x_plus_year 400) 0)))
 (let (($x868 (= (mod x_plus_year 4) 0)))
 (let (($x669 (or (and $x868 (and (distinct (mod x_plus_year 100) 0) true)) $x722)))
 (let (($x4062 (= x_plus_month 2)))
 (let (($x3861 (>= x_plus_day 1)))
 (let (($x3573 (<= x_plus_month 12)))
 (let (($x4085 (>= x_plus_month 1)))
 (let (($x4083 (<= x_plus_year 2100)))
 (let (($x4079 (>= x_plus_year 1900)))
 (and $x4079 $x4083 $x4085 $x3573 $x3861 (<= x_plus_day (ite $x4062 (ite $x669 29 28) ?x1387))))))))))))))))))
(assert
 (let (($x722 (= (mod x_plus_year 400) 0)))
 (let (($x868 (= (mod x_plus_year 4) 0)))
 (let (($x669 (or (and $x868 (and (distinct (mod x_plus_year 100) 0) true)) $x722)))
 (let ((?x215 (ite (= 2 x_plus_month) (ite $x669 31 31) (ite (= 1 x_plus_month) (ite $x669 0 0) 0))))
 (let ((?x811 (ite (= 4 x_plus_month) (ite $x669 91 90) (ite (= 3 x_plus_month) (ite $x669 60 59) ?x215))))
 (let ((?x685 (ite (= 6 x_plus_month) (ite $x669 152 151) (ite (= 5 x_plus_month) (ite $x669 121 120) ?x811))))
 (let ((?x853 (ite (= 8 x_plus_month) (ite $x669 213 212) (ite (= 7 x_plus_month) (ite $x669 182 181) ?x685))))
 (let ((?x1256 (ite (= 10 x_plus_month) (ite $x669 274 273) (ite (= 9 x_plus_month) (ite $x669 244 243) ?x853))))
 (let ((?x667 (ite (= 12 x_plus_month) (ite $x669 335 334) (ite (= 11 x_plus_month) (ite $x669 305 304) ?x1256))))
 (let ((?x207 (+ (* 365 (- x_plus_year 1)) (div (- x_plus_year 1) 4))))
 (let ((?x204 (+ (- ?x207 (div (- x_plus_year 1) 100)) (div (- x_plus_year 1) 400))))
 (= x_plus_epoch (- (+ (+ ?x204 ?x667) (- x_plus_day 1)) 730179))))))))))))))
(assert
 (let ((?x1885 (+ x_epoch 730179)))
 (let ((?x955 (mod ?x1885 146097)))
 (let ((?x3291 (div ?x955 36524)))
 (let ((?x2830 (ite (<= 4 ?x3291) 3 ?x3291)))
 (let ((?x785 (- ?x955 (* ?x2830 36524))))
 (let ((?x456 (mod ?x785 1461)))
 (let ((?x2088 (div ?x456 365)))
 (let ((?x374 (ite (<= 4 ?x2088) 3 ?x2088)))
 (let ((?x1234 (+ (+ (* (div ?x1885 146097) 400) (* ?x2830 100)) (* (div ?x785 1461) 4))))
 (let ((?x711 (+ (+ ?x1234 ?x374) 1)))
 (let (($x976 (or (and (= (mod ?x711 4) 0) (and (distinct (mod ?x711 100) 0) true)) (= (mod ?x711 400) 0))))
 (let ((?x678 (- ?x456 (* ?x374 365))))
 (let ((?x2492 (ite $x976 31 31)))
 (let (($x2969 (>= ?x678 ?x2492)))
 (let ((?x2227 (ite $x2969 (+ (- ?x678 ?x2492) 1) (+ (- ?x678 (ite $x976 0 0)) 1))))
 (let ((?x810 (ite $x976 60 59)))
 (let (($x837 (>= ?x678 ?x810)))
 (let ((?x401 (ite $x976 91 90)))
 (let (($x1380 (>= ?x678 ?x401)))
 (let ((?x2687 (ite $x1380 (+ (- ?x678 ?x401) 1) (ite $x837 (+ (- ?x678 ?x810) 1) ?x2227))))
 (let ((?x528 (ite $x976 121 120)))
 (let (($x661 (>= ?x678 ?x528)))
 (let ((?x3710 (ite $x976 152 151)))
 (let (($x1145 (>= ?x678 ?x3710)))
 (let ((?x2059 (ite $x1145 (+ (- ?x678 ?x3710) 1) (ite $x661 (+ (- ?x678 ?x528) 1) ?x2687))))
 (let ((?x3712 (ite $x976 182 181)))
 (let (($x234 (>= ?x678 ?x3712)))
 (let ((?x2245 (ite $x976 213 212)))
 (let (($x381 (>= ?x678 ?x2245)))
 (let ((?x708 (ite $x381 (+ (- ?x678 ?x2245) 1) (ite $x234 (+ (- ?x678 ?x3712) 1) ?x2059))))
 (let ((?x677 (ite $x976 244 243)))
 (let (($x1420 (>= ?x678 ?x677)))
 (let ((?x2685 (ite $x976 274 273)))
 (let (($x1708 (>= ?x678 ?x2685)))
 (let ((?x1561 (ite $x1708 (+ (- ?x678 ?x2685) 1) (ite $x1420 (+ (- ?x678 ?x677) 1) ?x708))))
 (let ((?x792 (ite $x976 305 304)))
 (let (($x786 (>= ?x678 ?x792)))
 (let ((?x855 (ite $x976 335 334)))
 (let (($x889 (>= ?x678 ?x855)))
 (let ((?x3437 (ite $x889 (+ (- ?x678 ?x855) 1) (ite $x786 (+ (- ?x678 ?x792) 1) ?x1561))))
 (let ((?x3490 (* 0 12)))
 (let ((?x495 (+ ?x3490 2)))
 (let ((?x2349 (ite $x661 5 (ite $x1380 4 (ite $x837 3 (ite $x2969 2 1))))))
 (let ((?x896 (ite $x1420 9 (ite $x381 8 (ite $x234 7 (ite $x1145 6 ?x2349))))))
 (let ((?x288 (ite $x889 12 (ite $x786 11 (ite $x1708 10 ?x896)))))
 (let ((?x815 (+ ?x288 ?x495)))
 (let ((?x578 (- ?x815 1)))
 (let ((?x261 (+ (mod ?x578 12) 1)))
 (let ((?x593 (ite (or (= ?x261 4) (= ?x261 6) (= ?x261 9) (= ?x261 11)) 30 31)))
 (let (($x828 (and (= (mod (+ ?x711 (+ 0 (div ?x578 12))) 4) 0) (and (distinct (mod (+ ?x711 (+ 0 (div ?x578 12))) 100) 0) true))))
 (let (($x793 (or $x828 (= (mod (+ ?x711 (+ 0 (div ?x578 12))) 400) 0))))
 (let ((?x952 (ite (= ?x261 2) (ite $x793 29 28) ?x593)))
 (let (($x2912 (> 1 ?x3437)))
 (let ((?x2809 (ite $x2912 1 (ite (> ?x3437 ?x952) ?x952 ?x3437))))
 (let ((?x3453 (ite (> 1 ?x2809) 1 (ite (> ?x2809 ?x952) ?x952 ?x2809))))
 (let ((?x2511 (ite (= 2 ?x261) (ite $x793 31 31) (ite (= 1 ?x261) (ite $x793 0 0) 0))))
 (let ((?x1003 (ite (= 4 ?x261) (ite $x793 91 90) (ite (= 3 ?x261) (ite $x793 60 59) ?x2511))))
 (let ((?x443 (ite (= 6 ?x261) (ite $x793 152 151) (ite (= 5 ?x261) (ite $x793 121 120) ?x1003))))
 (let ((?x966 (ite (= 8 ?x261) (ite $x793 213 212) (ite (= 7 ?x261) (ite $x793 182 181) ?x443))))
 (let ((?x346 (ite (= 10 ?x261) (ite $x793 274 273) (ite (= 9 ?x261) (ite $x793 244 243) ?x966))))
 (let ((?x1780 (ite (= 12 ?x261) (ite $x793 335 334) (ite (= 11 ?x261) (ite $x793 305 304) ?x346))))
 (let ((?x259 (+ (* 365 (- (+ ?x711 (+ 0 (div ?x578 12))) 1)) (div (- (+ ?x711 (+ 0 (div ?x578 12))) 1) 4))))
 (let ((?x1434 (+ (- ?x259 (div (- (+ ?x711 (+ 0 (div ?x578 12))) 1) 100)) (div (- (+ ?x711 (+ 0 (div ?x578 12))) 1) 400))))
 (let ((?x1633 (+ (+ (- (+ (+ ?x1434 ?x1780) (- ?x3453 1)) 730179) 0) 730179)))
 (let ((?x2065 (mod ?x1633 146097)))
 (let ((?x2862 (div ?x2065 36524)))
 (let ((?x2127 (ite (<= 4 ?x2862) 3 ?x2862)))
 (let ((?x3206 (- ?x2065 (* ?x2127 36524))))
 (let ((?x1296 (mod ?x3206 1461)))
 (let ((?x1717 (div ?x1296 365)))
 (let ((?x841 (ite (<= 4 ?x1717) 3 ?x1717)))
 (let ((?x334 (+ (+ (* (div ?x1633 146097) 400) (* ?x2127 100)) (* (div ?x3206 1461) 4))))
 (let ((?x565 (+ (+ ?x334 ?x841) 1)))
 (let ((?x2496 (+ 0 (div ?x578 12))))
 (let ((?x2820 (+ ?x711 ?x2496)))
 (let (($x682 (= 0 0)))
 (let ((?x3300 (ite $x682 ?x2820 ?x565)))
 (= x_plus_year ?x3300)))))))))))))))))))))))))))))))))))))))))))))))))))))))))))))))))))))))))))))))
(assert
 (let ((?x1885 (+ x_epoch 730179)))
 (let ((?x955 (mod ?x1885 146097)))
 (let ((?x3291 (div ?x955 36524)))
 (let ((?x2830 (ite (<= 4 ?x3291) 3 ?x3291)))
 (let ((?x785 (- ?x955 (* ?x2830 36524))))
 (let ((?x456 (mod ?x785 1461)))
 (let ((?x2088 (div ?x456 365)))
 (let ((?x374 (ite (<= 4 ?x2088) 3 ?x2088)))
 (let ((?x1234 (+ (+ (* (div ?x1885 146097) 400) (* ?x2830 100)) (* (div ?x785 1461) 4))))
 (let ((?x711 (+ (+ ?x1234 ?x374) 1)))
 (let (($x976 (or (and (= (mod ?x711 4) 0) (and (distinct (mod ?x711 100) 0) true)) (= (mod ?x711 400) 0))))
 (let ((?x678 (- ?x456 (* ?x374 365))))
 (let ((?x2492 (ite $x976 31 31)))
 (let (($x2969 (>= ?x678 ?x2492)))
 (let ((?x2227 (ite $x2969 (+ (- ?x678 ?x2492) 1) (+ (- ?x678 (ite $x976 0 0)) 1))))
 (let ((?x810 (ite $x976 60 59)))
 (let (($x837 (>= ?x678 ?x810)))
 (let ((?x401 (ite $x976 91 90)))
 (let (($x1380 (>= ?x678 ?x401)))
 (let ((?x2687 (ite $x1380 (+ (- ?x678 ?x401) 1) (ite $x837 (+ (- ?x678 ?x810) 1) ?x2227))))
 (let ((?x528 (ite $x976 121 120)))
 (let (($x661 (>= ?x678 ?x528)))
 (let ((?x3710 (ite $x976 152 151)))
 (let (($x1145 (>= ?x678 ?x3710)))
 (let ((?x2059 (ite $x1145 (+ (- ?x678 ?x3710) 1) (ite $x661 (+ (- ?x678 ?x528) 1) ?x2687))))
 (let ((?x3712 (ite $x976 182 181)))
 (let (($x234 (>= ?x678 ?x3712)))
 (let ((?x2245 (ite $x976 213 212)))
 (let (($x381 (>= ?x678 ?x2245)))
 (let ((?x708 (ite $x381 (+ (- ?x678 ?x2245) 1) (ite $x234 (+ (- ?x678 ?x3712) 1) ?x2059))))
 (let ((?x677 (ite $x976 244 243)))
 (let (($x1420 (>= ?x678 ?x677)))
 (let ((?x2685 (ite $x976 274 273)))
 (let (($x1708 (>= ?x678 ?x2685)))
 (let ((?x1561 (ite $x1708 (+ (- ?x678 ?x2685) 1) (ite $x1420 (+ (- ?x678 ?x677) 1) ?x708))))
 (let ((?x792 (ite $x976 305 304)))
 (let (($x786 (>= ?x678 ?x792)))
 (let ((?x855 (ite $x976 335 334)))
 (let (($x889 (>= ?x678 ?x855)))
 (let ((?x3437 (ite $x889 (+ (- ?x678 ?x855) 1) (ite $x786 (+ (- ?x678 ?x792) 1) ?x1561))))
 (let ((?x3490 (* 0 12)))
 (let ((?x495 (+ ?x3490 2)))
 (let ((?x2349 (ite $x661 5 (ite $x1380 4 (ite $x837 3 (ite $x2969 2 1))))))
 (let ((?x896 (ite $x1420 9 (ite $x381 8 (ite $x234 7 (ite $x1145 6 ?x2349))))))
 (let ((?x288 (ite $x889 12 (ite $x786 11 (ite $x1708 10 ?x896)))))
 (let ((?x815 (+ ?x288 ?x495)))
 (let ((?x578 (- ?x815 1)))
 (let ((?x261 (+ (mod ?x578 12) 1)))
 (let ((?x593 (ite (or (= ?x261 4) (= ?x261 6) (= ?x261 9) (= ?x261 11)) 30 31)))
 (let (($x828 (and (= (mod (+ ?x711 (+ 0 (div ?x578 12))) 4) 0) (and (distinct (mod (+ ?x711 (+ 0 (div ?x578 12))) 100) 0) true))))
 (let (($x793 (or $x828 (= (mod (+ ?x711 (+ 0 (div ?x578 12))) 400) 0))))
 (let ((?x952 (ite (= ?x261 2) (ite $x793 29 28) ?x593)))
 (let (($x2912 (> 1 ?x3437)))
 (let ((?x2809 (ite $x2912 1 (ite (> ?x3437 ?x952) ?x952 ?x3437))))
 (let ((?x3453 (ite (> 1 ?x2809) 1 (ite (> ?x2809 ?x952) ?x952 ?x2809))))
 (let ((?x2511 (ite (= 2 ?x261) (ite $x793 31 31) (ite (= 1 ?x261) (ite $x793 0 0) 0))))
 (let ((?x1003 (ite (= 4 ?x261) (ite $x793 91 90) (ite (= 3 ?x261) (ite $x793 60 59) ?x2511))))
 (let ((?x443 (ite (= 6 ?x261) (ite $x793 152 151) (ite (= 5 ?x261) (ite $x793 121 120) ?x1003))))
 (let ((?x966 (ite (= 8 ?x261) (ite $x793 213 212) (ite (= 7 ?x261) (ite $x793 182 181) ?x443))))
 (let ((?x346 (ite (= 10 ?x261) (ite $x793 274 273) (ite (= 9 ?x261) (ite $x793 244 243) ?x966))))
 (let ((?x1780 (ite (= 12 ?x261) (ite $x793 335 334) (ite (= 11 ?x261) (ite $x793 305 304) ?x346))))
 (let ((?x259 (+ (* 365 (- (+ ?x711 (+ 0 (div ?x578 12))) 1)) (div (- (+ ?x711 (+ 0 (div ?x578 12))) 1) 4))))
 (let ((?x1434 (+ (- ?x259 (div (- (+ ?x711 (+ 0 (div ?x578 12))) 1) 100)) (div (- (+ ?x711 (+ 0 (div ?x578 12))) 1) 400))))
 (let ((?x1633 (+ (+ (- (+ (+ ?x1434 ?x1780) (- ?x3453 1)) 730179) 0) 730179)))
 (let ((?x2065 (mod ?x1633 146097)))
 (let ((?x2862 (div ?x2065 36524)))
 (let ((?x2127 (ite (<= 4 ?x2862) 3 ?x2862)))
 (let ((?x3206 (- ?x2065 (* ?x2127 36524))))
 (let ((?x1296 (mod ?x3206 1461)))
 (let ((?x1717 (div ?x1296 365)))
 (let ((?x841 (ite (<= 4 ?x1717) 3 ?x1717)))
 (let ((?x334 (+ (+ (* (div ?x1633 146097) 400) (* ?x2127 100)) (* (div ?x3206 1461) 4))))
 (let ((?x565 (+ (+ ?x334 ?x841) 1)))
 (let (($x644 (or (and (= (mod ?x565 4) 0) (and (distinct (mod ?x565 100) 0) true)) (= (mod ?x565 400) 0))))
 (let ((?x525 (ite $x644 31 31)))
 (let ((?x523 (- ?x1296 (* ?x841 365))))
 (let (($x222 (>= ?x523 ?x525)))
 (let ((?x1149 (ite $x644 60 59)))
 (let (($x2174 (>= ?x523 ?x1149)))
 (let ((?x3250 (ite $x644 91 90)))
 (let (($x2872 (>= ?x523 ?x3250)))
 (let ((?x2304 (ite $x644 121 120)))
 (let (($x2811 (>= ?x523 ?x2304)))
 (let ((?x1457 (ite $x2811 5 (ite $x2872 4 (ite $x2174 3 (ite $x222 2 1))))))
 (let ((?x1382 (ite $x644 152 151)))
 (let (($x532 (>= ?x523 ?x1382)))
 (let ((?x1413 (ite $x644 182 181)))
 (let (($x1530 (>= ?x523 ?x1413)))
 (let ((?x3020 (ite $x644 213 212)))
 (let (($x1147 (>= ?x523 ?x3020)))
 (let ((?x2523 (ite $x644 244 243)))
 (let (($x2877 (>= ?x523 ?x2523)))
 (let ((?x847 (ite $x2877 9 (ite $x1147 8 (ite $x1530 7 (ite $x532 6 ?x1457))))))
 (let ((?x3365 (ite $x644 274 273)))
 (let (($x1692 (>= ?x523 ?x3365)))
 (let ((?x518 (ite $x644 305 304)))
 (let (($x2022 (>= ?x523 ?x518)))
 (let ((?x3172 (ite $x644 335 334)))
 (let (($x2134 (>= ?x523 ?x3172)))
 (let (($x682 (= 0 0)))
 (let ((?x2219 (ite $x682 ?x261 (ite $x2134 12 (ite $x2022 11 (ite $x1692 10 ?x847))))))
 (= x_plus_month ?x2219)))))))))))))))))))))))))))))))))))))))))))))))))))))))))))))))))))))))))))))))))))))))))))))))))))))))
(assert
 (let ((?x1885 (+ x_epoch 730179)))
 (let ((?x955 (mod ?x1885 146097)))
 (let ((?x3291 (div ?x955 36524)))
 (let ((?x2830 (ite (<= 4 ?x3291) 3 ?x3291)))
 (let ((?x785 (- ?x955 (* ?x2830 36524))))
 (let ((?x456 (mod ?x785 1461)))
 (let ((?x2088 (div ?x456 365)))
 (let ((?x374 (ite (<= 4 ?x2088) 3 ?x2088)))
 (let ((?x1234 (+ (+ (* (div ?x1885 146097) 400) (* ?x2830 100)) (* (div ?x785 1461) 4))))
 (let ((?x711 (+ (+ ?x1234 ?x374) 1)))
 (let (($x976 (or (and (= (mod ?x711 4) 0) (and (distinct (mod ?x711 100) 0) true)) (= (mod ?x711 400) 0))))
 (let ((?x678 (- ?x456 (* ?x374 365))))
 (let ((?x2492 (ite $x976 31 31)))
 (let (($x2969 (>= ?x678 ?x2492)))
 (let ((?x2227 (ite $x2969 (+ (- ?x678 ?x2492) 1) (+ (- ?x678 (ite $x976 0 0)) 1))))
 (let ((?x810 (ite $x976 60 59)))
 (let (($x837 (>= ?x678 ?x810)))
 (let ((?x401 (ite $x976 91 90)))
 (let (($x1380 (>= ?x678 ?x401)))
 (let ((?x2687 (ite $x1380 (+ (- ?x678 ?x401) 1) (ite $x837 (+ (- ?x678 ?x810) 1) ?x2227))))
 (let ((?x528 (ite $x976 121 120)))
 (let (($x661 (>= ?x678 ?x528)))
 (let ((?x3710 (ite $x976 152 151)))
 (let (($x1145 (>= ?x678 ?x3710)))
 (let ((?x2059 (ite $x1145 (+ (- ?x678 ?x3710) 1) (ite $x661 (+ (- ?x678 ?x528) 1) ?x2687))))
 (let ((?x3712 (ite $x976 182 181)))
 (let (($x234 (>= ?x678 ?x3712)))
 (let ((?x2245 (ite $x976 213 212)))
 (let (($x381 (>= ?x678 ?x2245)))
 (let ((?x708 (ite $x381 (+ (- ?x678 ?x2245) 1) (ite $x234 (+ (- ?x678 ?x3712) 1) ?x2059))))
 (let ((?x677 (ite $x976 244 243)))
 (let (($x1420 (>= ?x678 ?x677)))
 (let ((?x2685 (ite $x976 274 273)))
 (let (($x1708 (>= ?x678 ?x2685)))
 (let ((?x1561 (ite $x1708 (+ (- ?x678 ?x2685) 1) (ite $x1420 (+ (- ?x678 ?x677) 1) ?x708))))
 (let ((?x792 (ite $x976 305 304)))
 (let (($x786 (>= ?x678 ?x792)))
 (let ((?x855 (ite $x976 335 334)))
 (let (($x889 (>= ?x678 ?x855)))
 (let ((?x3437 (ite $x889 (+ (- ?x678 ?x855) 1) (ite $x786 (+ (- ?x678 ?x792) 1) ?x1561))))
 (let ((?x3490 (* 0 12)))
 (let ((?x495 (+ ?x3490 2)))
 (let ((?x2349 (ite $x661 5 (ite $x1380 4 (ite $x837 3 (ite $x2969 2 1))))))
 (let ((?x896 (ite $x1420 9 (ite $x381 8 (ite $x234 7 (ite $x1145 6 ?x2349))))))
 (let ((?x288 (ite $x889 12 (ite $x786 11 (ite $x1708 10 ?x896)))))
 (let ((?x815 (+ ?x288 ?x495)))
 (let ((?x578 (- ?x815 1)))
 (let ((?x261 (+ (mod ?x578 12) 1)))
 (let ((?x593 (ite (or (= ?x261 4) (= ?x261 6) (= ?x261 9) (= ?x261 11)) 30 31)))
 (let (($x828 (and (= (mod (+ ?x711 (+ 0 (div ?x578 12))) 4) 0) (and (distinct (mod (+ ?x711 (+ 0 (div ?x578 12))) 100) 0) true))))
 (let (($x793 (or $x828 (= (mod (+ ?x711 (+ 0 (div ?x578 12))) 400) 0))))
 (let ((?x952 (ite (= ?x261 2) (ite $x793 29 28) ?x593)))
 (let (($x2912 (> 1 ?x3437)))
 (let ((?x2809 (ite $x2912 1 (ite (> ?x3437 ?x952) ?x952 ?x3437))))
 (let ((?x3453 (ite (> 1 ?x2809) 1 (ite (> ?x2809 ?x952) ?x952 ?x2809))))
 (let ((?x2511 (ite (= 2 ?x261) (ite $x793 31 31) (ite (= 1 ?x261) (ite $x793 0 0) 0))))
 (let ((?x1003 (ite (= 4 ?x261) (ite $x793 91 90) (ite (= 3 ?x261) (ite $x793 60 59) ?x2511))))
 (let ((?x443 (ite (= 6 ?x261) (ite $x793 152 151) (ite (= 5 ?x261) (ite $x793 121 120) ?x1003))))
 (let ((?x966 (ite (= 8 ?x261) (ite $x793 213 212) (ite (= 7 ?x261) (ite $x793 182 181) ?x443))))
 (let ((?x346 (ite (= 10 ?x261) (ite $x793 274 273) (ite (= 9 ?x261) (ite $x793 244 243) ?x966))))
 (let ((?x1780 (ite (= 12 ?x261) (ite $x793 335 334) (ite (= 11 ?x261) (ite $x793 305 304) ?x346))))
 (let ((?x259 (+ (* 365 (- (+ ?x711 (+ 0 (div ?x578 12))) 1)) (div (- (+ ?x711 (+ 0 (div ?x578 12))) 1) 4))))
 (let ((?x1434 (+ (- ?x259 (div (- (+ ?x711 (+ 0 (div ?x578 12))) 1) 100)) (div (- (+ ?x711 (+ 0 (div ?x578 12))) 1) 400))))
 (let ((?x1633 (+ (+ (- (+ (+ ?x1434 ?x1780) (- ?x3453 1)) 730179) 0) 730179)))
 (let ((?x2065 (mod ?x1633 146097)))
 (let ((?x2862 (div ?x2065 36524)))
 (let ((?x2127 (ite (<= 4 ?x2862) 3 ?x2862)))
 (let ((?x3206 (- ?x2065 (* ?x2127 36524))))
 (let ((?x1296 (mod ?x3206 1461)))
 (let ((?x1717 (div ?x1296 365)))
 (let ((?x841 (ite (<= 4 ?x1717) 3 ?x1717)))
 (let ((?x334 (+ (+ (* (div ?x1633 146097) 400) (* ?x2127 100)) (* (div ?x3206 1461) 4))))
 (let ((?x565 (+ (+ ?x334 ?x841) 1)))
 (let (($x644 (or (and (= (mod ?x565 4) 0) (and (distinct (mod ?x565 100) 0) true)) (= (mod ?x565 400) 0))))
 (let ((?x523 (- ?x1296 (* ?x841 365))))
 (let ((?x525 (ite $x644 31 31)))
 (let (($x222 (>= ?x523 ?x525)))
 (let ((?x2726 (ite $x222 (+ (- ?x523 ?x525) 1) (+ (- ?x523 (ite $x644 0 0)) 1))))
 (let ((?x1149 (ite $x644 60 59)))
 (let (($x2174 (>= ?x523 ?x1149)))
 (let ((?x3250 (ite $x644 91 90)))
 (let (($x2872 (>= ?x523 ?x3250)))
 (let ((?x2463 (ite $x2872 (+ (- ?x523 ?x3250) 1) (ite $x2174 (+ (- ?x523 ?x1149) 1) ?x2726))))
 (let ((?x2304 (ite $x644 121 120)))
 (let (($x2811 (>= ?x523 ?x2304)))
 (let ((?x1382 (ite $x644 152 151)))
 (let (($x532 (>= ?x523 ?x1382)))
 (let ((?x737 (ite $x532 (+ (- ?x523 ?x1382) 1) (ite $x2811 (+ (- ?x523 ?x2304) 1) ?x2463))))
 (let ((?x1413 (ite $x644 182 181)))
 (let (($x1530 (>= ?x523 ?x1413)))
 (let ((?x3020 (ite $x644 213 212)))
 (let (($x1147 (>= ?x523 ?x3020)))
 (let ((?x2001 (ite $x1147 (+ (- ?x523 ?x3020) 1) (ite $x1530 (+ (- ?x523 ?x1413) 1) ?x737))))
 (let ((?x2523 (ite $x644 244 243)))
 (let (($x2877 (>= ?x523 ?x2523)))
 (let ((?x3365 (ite $x644 274 273)))
 (let (($x1692 (>= ?x523 ?x3365)))
 (let ((?x3187 (ite $x1692 (+ (- ?x523 ?x3365) 1) (ite $x2877 (+ (- ?x523 ?x2523) 1) ?x2001))))
 (let ((?x518 (ite $x644 305 304)))
 (let (($x2022 (>= ?x523 ?x518)))
 (let ((?x3172 (ite $x644 335 334)))
 (let (($x2134 (>= ?x523 ?x3172)))
 (let ((?x1264 (ite $x2134 (+ (- ?x523 ?x3172) 1) (ite $x2022 (+ (- ?x523 ?x518) 1) ?x3187))))
 (let (($x682 (= 0 0)))
 (let ((?x1495 (ite $x682 ?x3453 ?x1264)))
 (= x_plus_day ?x1495)))))))))))))))))))))))))))))))))))))))))))))))))))))))))))))))))))))))))))))))))))))))))))))))))))))))))))
(assert
 (>= x_plus_1_epoch (- 36584)))
(assert
 (<= x_plus_1_epoch 36829))
(assert
 (= x_plus_1_epoch (+ x_epoch 61)))
(assert
 (= x_plus_epoch x_plus_1_epoch))
(check-sat)
